c 
c U(n,d) graph
c graph gen seed     : 13249
c number of vertices : 25
c max number of edges: 500
c Euclidean distance : 0.600000
c data structure     : dense
c
c           Graph Stats
c number of vertices  : 25
c nonisolated vertices: 25
c number of edges     : 162
c edge density        : 0.540000
c max degree          : 20
c avg degree          : 12.96
c min degree          : 5
p col 25 162
e 1 2
e 1 11
e 1 12
e 1 14
e 1 15
e 1 16
e 1 17
e 1 18
e 1 20
e 1 21
e 1 24
e 1 25
e 2 3
e 2 4
e 2 11
e 2 13
e 2 14
e 2 15
e 2 17
e 2 18
e 2 19
e 2 20
e 2 21
e 2 22
e 2 25
e 3 4
e 3 6
e 3 9
e 3 13
e 3 15
e 3 17
e 3 19
e 3 22
e 3 23
e 4 6
e 4 9
e 4 13
e 4 15
e 4 17
e 4 19
e 4 23
e 5 7
e 5 8
e 5 10
e 5 11
e 5 12
e 5 15
e 5 16
e 5 17
e 5 18
e 5 19
e 5 20
e 5 21
e 5 22
e 5 24
e 5 25
e 6 9
e 6 19
e 6 23
e 7 8
e 7 10
e 7 12
e 7 16
e 7 17
e 7 18
e 7 19
e 7 22
e 7 23
e 7 24
e 8 10
e 8 12
e 8 16
e 8 18
e 8 19
e 8 22
e 8 24
e 9 19
e 9 23
e 10 12
e 10 16
e 10 18
e 10 19
e 10 22
e 10 24
e 11 12
e 11 14
e 11 15
e 11 16
e 11 17
e 11 18
e 11 20
e 11 21
e 11 22
e 11 24
e 11 25
e 12 16
e 12 17
e 12 18
e 12 19
e 12 20
e 12 21
e 12 22
e 12 24
e 12 25
e 13 14
e 13 15
e 13 17
e 13 23
e 14 15
e 14 17
e 14 18
e 14 20
e 14 21
e 14 24
e 14 25
e 15 16
e 15 17
e 15 18
e 15 19
e 15 21
e 15 22
e 15 23
e 15 24
e 15 25
e 16 17
e 16 18
e 16 19
e 16 20
e 16 21
e 16 22
e 16 24
e 16 25
e 17 18
e 17 19
e 17 20
e 17 21
e 17 22
e 17 23
e 17 24
e 17 25
e 18 19
e 18 20
e 18 21
e 18 22
e 18 24
e 18 25
e 19 21
e 19 22
e 19 23
e 19 24
e 19 25
e 20 21
e 20 22
e 20 24
e 20 25
e 21 22
e 21 24
e 21 25
e 22 23
e 22 24
e 22 25
e 24 25
